7
2147483647 28 73 74 97 50 50 
28 2147483647 27 14 87 18 33 
73 27 2147483647 79 3 74 68 
74 14 79 2147483647 30 84 1 
97 87 3 30 2147483647 46 11 
50 18 74 84 46 2147483647 81 
50 33 68 1 11 81 2147483647 
